28 74 
29 45 47 1 18 33 38 78 16 61 48 7 52 68 96 
92 39 15 20 83 89 
63 19 42 23 88 62 11 76 41 22 54 51 6 57 97 43 50 94 59 93 77 37 58 
73 27 64 86 30 79 34 9 84 85 56 5 26 24 66 17 25 
95 44 67 3 40 55 31 35 60 100 
87 81 21 75 2 10 
71 4 80 32 
46 
12 98 69 65 90 36 8 99 53 14 49 82 72 70 13 91 

